# Solution for model F-JSSP-SDST
# Objective value = 600
B0(15) 1
B1(15) 1
B2(12) 0
B3(12) 0
B4(14) 1
B5(14) 1
B6(12) 0
B7(12) 1
B8(11) 1
B9(11) 0
B10(0) 0
B11(2) 0
B12(2) 0
B13(0) 0
B14(2) 0
B15(2) 0
B16(2) 1
B17(0) 0
B18(4) 0
B19(2) 0
B20(4) 1
B21(4) 0
B22(0) 0
B23(0) 0
B24(0) 0
B25(2) 0
B26(4) 0
B27(4) 0
B28(0) 0
B29(0) 0
B30(2) 1
B31(0) 0
B32(2) 0
B33(2) 0
B34(0) 0
B35(0) 0
B36(0) 0
B37(0) 0
B38(0) 0
B39(0) 0
B40(0) 0
B41(0) 0
B42(0) 0
B43(0) 0
B44(0) 0
B45(0) 0
I46(15) 12
I47(16) 62
I48(14) 0
I49(13) 0
I50(15) 0
I51(16) 60
I52(12) 0
I53(12) 140
I54(13) 275
I55(13) 0
I56(1) 600
